p cnf 211 427
97 0
-1 97 0
1 -97 0
98 0
-2 98 0
2 -98 0
99 0
-3 99 0
3 -99 0
100 0
-4 100 0
4 -100 0
101 0
-5 101 0
5 -101 0
102 0
-6 102 0
6 -102 0
103 0
-7 103 0
7 -103 0
104 0
-8 104 0
8 -104 0
105 0
-9 105 0
9 -105 0
106 0
-10 106 0
10 -106 0
107 0
-11 107 0
11 -107 0
108 0
-12 108 0
12 -108 0
109 0
-13 109 0
13 -109 0
110 0
-14 110 0
14 -110 0
111 0
-15 111 0
15 -111 0
112 0
-16 112 0
16 -112 0
113 0
-17 113 0
17 -113 0
114 0
-18 114 0
18 -114 0
115 0
-19 115 0
19 -115 0
116 0
-20 116 0
20 -116 0
117 0
-21 117 0
21 -117 0
118 0
-22 118 0
22 -118 0
119 0
-23 119 0
23 -119 0
120 0
-24 120 0
24 -120 0
121 0
-25 121 0
25 -121 0
122 0
-26 122 0
26 -122 0
123 0
-27 123 0
27 -123 0
124 0
-28 124 0
28 -124 0
125 0
-29 125 0
29 -125 0
126 0
-30 126 0
30 -126 0
127 0
-31 127 0
31 -127 0
128 0
-32 128 0
32 -128 0
129 0
-33 129 0
33 -129 0
130 -56 -47 0
-130 56 0
-130 47 0
131 -85 0
-131 85 0
132 -61 -45 0
-132 61 0
-132 45 0
-35 130 131 132 0
35 -130 0
35 -131 0
35 -132 0
133 -36 0
-133 36 0
-37 133 0
37 -133 0
134 -52 -49 0
-134 52 0
-134 49 0
135 -88 0
-135 88 0
-39 134 135 0
39 -134 0
39 -135 0
136 -53 -49 0
-136 53 0
-136 49 0
137 -89 0
-137 89 0
-41 136 137 0
41 -136 0
41 -137 0
138 -54 -49 0
-138 54 0
-138 49 0
139 -90 0
-139 90 0
-42 138 139 0
42 -138 0
42 -139 0
140 -76 0
-140 76 0
141 -74 -85 0
-141 74 0
-141 85 0
142 -72 -84 0
-142 72 0
-142 84 0
143 -69 -83 0
-143 69 0
-143 83 0
144 -66 -82 0
-144 66 0
-144 82 0
145 -59 -81 0
-145 59 0
-145 81 0
-45 140 141 142 143 144 145 0
45 -140 0
45 -141 0
45 -142 0
45 -143 0
45 -144 0
45 -145 0
146 -81 0
-146 81 0
147 -67 -82 0
-147 67 0
-147 82 0
148 -55 -87 0
-148 55 0
-148 87 0
149 -75 -85 0
-149 75 0
-149 85 0
150 -65 -76 0
-150 65 0
-150 76 0
151 -70 -83 0
-151 70 0
-151 83 0
-47 146 147 148 149 150 151 0
47 -146 0
47 -147 0
47 -148 0
47 -149 0
47 -150 0
47 -151 0
152 -87 0
-152 87 0
153 -68 -90 0
-153 68 0
-153 90 0
154 -73 -88 0
-154 73 0
-154 88 0
155 -60 -47 0
-155 60 0
-155 47 0
156 -71 -89 0
-156 71 0
-156 89 0
-49 152 153 154 155 156 0
49 -152 0
49 -153 0
49 -154 0
49 -155 0
49 -156 0
157 -50 0
-157 50 0
-51 157 0
51 -157 0
158 -44 0
-158 44 0
159 -72 -79 0
-159 72 0
-159 79 0
160 -69 -78 0
-160 69 0
-160 78 0
161 -74 -80 0
-161 74 0
-161 80 0
162 -66 -77 0
-162 66 0
-162 77 0
-76 158 159 160 161 162 0
76 -158 0
76 -159 0
76 -160 0
76 -161 0
76 -162 0
163 -54 -86 0
-163 54 0
-163 86 0
164 -91 0
-164 91 0
-77 163 164 0
77 -163 0
77 -164 0
165 -92 0
-165 92 0
166 -53 -86 0
-166 53 0
-166 86 0
-78 165 166 0
78 -165 0
78 -166 0
167 -93 0
-167 93 0
168 -52 -86 0
-168 52 0
-168 86 0
-79 167 168 0
79 -167 0
79 -168 0
169 -34 0
-169 34 0
-80 169 0
80 -169 0
170 -67 -77 0
-170 67 0
-170 77 0
171 -46 0
-171 46 0
172 -75 -80 0
-172 75 0
-172 80 0
173 -55 -86 0
-173 55 0
-173 86 0
174 -70 -78 0
-174 70 0
-174 78 0
-81 170 171 172 173 174 0
81 -170 0
81 -171 0
81 -172 0
81 -173 0
81 -174 0
175 -94 0
-175 94 0
176 -54 -87 0
-176 54 0
-176 87 0
-82 175 176 0
82 -175 0
82 -176 0
177 -53 -87 0
-177 53 0
-177 87 0
178 -95 0
-178 95 0
-83 177 178 0
83 -177 0
83 -178 0
179 -96 0
-179 96 0
180 -52 -87 0
-180 52 0
-180 87 0
-84 179 180 0
84 -179 0
84 -180 0
181 -61 -76 0
-181 61 0
-181 76 0
182 -80 0
-182 80 0
183 -56 -81 0
-183 56 0
-183 81 0
-85 181 182 183 0
85 -181 0
85 -182 0
85 -183 0
184 -71 -92 0
-184 71 0
-184 92 0
185 -73 -93 0
-185 73 0
-185 93 0
186 -48 0
-186 48 0
187 -68 -91 0
-187 68 0
-187 91 0
-86 184 185 186 187 0
86 -184 0
86 -185 0
86 -186 0
86 -187 0
188 -73 -96 0
-188 73 0
-188 96 0
189 -68 -94 0
-189 68 0
-189 94 0
190 -60 -81 0
-190 60 0
-190 81 0
191 -86 0
-191 86 0
192 -71 -95 0
-192 71 0
-192 95 0
-87 188 189 190 191 192 0
87 -188 0
87 -189 0
87 -190 0
87 -191 0
87 -192 0
193 -62 -45 0
-193 62 0
-193 45 0
194 -84 0
-194 84 0
-88 193 194 0
88 -193 0
88 -194 0
195 -57 -47 0
-195 57 0
-195 47 0
196 -83 0
-196 83 0
197 -63 -45 0
-197 63 0
-197 45 0
-89 195 196 197 0
89 -195 0
89 -196 0
89 -197 0
198 -58 -47 0
-198 58 0
-198 47 0
199 -64 -45 0
-199 64 0
-199 45 0
200 -82 0
-200 82 0
-90 198 199 200 0
90 -198 0
90 -199 0
90 -200 0
201 -43 0
-201 43 0
-91 201 0
91 -201 0
202 -40 0
-202 40 0
-92 202 0
92 -202 0
203 -38 0
-203 38 0
-93 203 0
93 -203 0
204 -77 0
-204 77 0
205 -58 -81 0
-205 58 0
-205 81 0
206 -64 -76 0
-206 64 0
-206 76 0
-94 204 205 206 0
94 -204 0
94 -205 0
94 -206 0
207 -63 -76 0
-207 63 0
-207 76 0
208 -78 0
-208 78 0
209 -57 -81 0
-209 57 0
-209 81 0
-95 207 208 209 0
95 -207 0
95 -208 0
95 -209 0
210 -79 0
-210 79 0
211 -62 -76 0
-211 62 0
-211 76 0
-96 210 211 0
96 -210 0
96 -211 0
c p weight 1 1.0;1.0;1.0;1.0;1.0;1.0;1.0;1.0;1.0 0
c p weight -1 1.0;1.0;1.0;1.0;1.0;1.0;1.0;1.0;1.0 0
c p weight 2 1.0;1.0;1.0;1.0;1.0;1.0;1.0;1.0;1.0 0
c p weight -2 1.0;1.0;1.0;1.0;1.0;1.0;1.0;1.0;1.0 0
c p weight 3 1.0;1.0;1.0;1.0;1.0;1.0;1.0;1.0;1.0 0
c p weight -3 1.0;1.0;1.0;1.0;1.0;1.0;1.0;1.0;1.0 0
c p weight 4 1.0;1.0;1.0;1.0;1.0;1.0;1.0;1.0;1.0 0
c p weight -4 1.0;1.0;1.0;1.0;1.0;1.0;1.0;1.0;1.0 0
c p weight 5 1.0;1.0;1.0;1.0;1.0;1.0;1.0;1.0;1.0 0
c p weight -5 1.0;1.0;1.0;1.0;1.0;1.0;1.0;1.0;1.0 0
c p weight 6 1.0;1.0;1.0;1.0;1.0;1.0;1.0;1.0;1.0 0
c p weight -6 1.0;1.0;1.0;1.0;1.0;1.0;1.0;1.0;1.0 0
c p weight 7 1.0;1.0;1.0;1.0;1.0;1.0;1.0;1.0;1.0 0
c p weight -7 1.0;1.0;1.0;1.0;1.0;1.0;1.0;1.0;1.0 0
c p weight 8 1.0;1.0;1.0;1.0;1.0;1.0;1.0;1.0;1.0 0
c p weight -8 1.0;1.0;1.0;1.0;1.0;1.0;1.0;1.0;1.0 0
c p weight 9 1.0;1.0;1.0;1.0;1.0;1.0;1.0;1.0;1.0 0
c p weight -9 1.0;1.0;1.0;1.0;1.0;1.0;1.0;1.0;1.0 0
c p weight 10 1.0;1.0;1.0;1.0;1.0;1.0;1.0;1.0;1.0 0
c p weight -10 1.0;1.0;1.0;1.0;1.0;1.0;1.0;1.0;1.0 0
c p weight 11 1.0;1.0;1.0;1.0;1.0;1.0;1.0;1.0;1.0 0
c p weight -11 1.0;1.0;1.0;1.0;1.0;1.0;1.0;1.0;1.0 0
c p weight 12 1.0;1.0;1.0;1.0;1.0;1.0;1.0;1.0;1.0 0
c p weight -12 1.0;1.0;1.0;1.0;1.0;1.0;1.0;1.0;1.0 0
c p weight 13 1.0;1.0;1.0;1.0;1.0;1.0;1.0;1.0;1.0 0
c p weight -13 1.0;1.0;1.0;1.0;1.0;1.0;1.0;1.0;1.0 0
c p weight 14 1.0;1.0;1.0;1.0;1.0;1.0;1.0;1.0;1.0 0
c p weight -14 1.0;1.0;1.0;1.0;1.0;1.0;1.0;1.0;1.0 0
c p weight 15 1.0;1.0;1.0;1.0;1.0;1.0;1.0;1.0;1.0 0
c p weight -15 1.0;1.0;1.0;1.0;1.0;1.0;1.0;1.0;1.0 0
c p weight 16 1.0;1.0;1.0;1.0;1.0;1.0;1.0;1.0;1.0 0
c p weight -16 1.0;1.0;1.0;1.0;1.0;1.0;1.0;1.0;1.0 0
c p weight 17 1.0;1.0;1.0;1.0;1.0;1.0;1.0;1.0;1.0 0
c p weight -17 1.0;1.0;1.0;1.0;1.0;1.0;1.0;1.0;1.0 0
c p weight 18 1.0;1.0;1.0;1.0;1.0;1.0;1.0;1.0;1.0 0
c p weight -18 1.0;1.0;1.0;1.0;1.0;1.0;1.0;1.0;1.0 0
c p weight 19 1.0;1.0;1.0;1.0;1.0;1.0;1.0;1.0;1.0 0
c p weight -19 1.0;1.0;1.0;1.0;1.0;1.0;1.0;1.0;1.0 0
c p weight 20 1.0;1.0;1.0;1.0;1.0;1.0;1.0;1.0;1.0 0
c p weight -20 1.0;1.0;1.0;1.0;1.0;1.0;1.0;1.0;1.0 0
c p weight 21 1.0;1.0;1.0;1.0;1.0;1.0;1.0;1.0;1.0 0
c p weight -21 1.0;1.0;1.0;1.0;1.0;1.0;1.0;1.0;1.0 0
c p weight 22 1.0;1.0;1.0;1.0;1.0;1.0;1.0;1.0;1.0 0
c p weight -22 1.0;1.0;1.0;1.0;1.0;1.0;1.0;1.0;1.0 0
c p weight 23 1.0;1.0;1.0;1.0;1.0;1.0;1.0;1.0;1.0 0
c p weight -23 1.0;1.0;1.0;1.0;1.0;1.0;1.0;1.0;1.0 0
c p weight 24 1.0;1.0;1.0;1.0;1.0;1.0;1.0;1.0;1.0 0
c p weight -24 1.0;1.0;1.0;1.0;1.0;1.0;1.0;1.0;1.0 0
c p weight 25 1.0;1.0;1.0;1.0;1.0;1.0;1.0;1.0;1.0 0
c p weight -25 1.0;1.0;1.0;1.0;1.0;1.0;1.0;1.0;1.0 0
c p weight 26 1.0;1.0;1.0;1.0;1.0;1.0;1.0;1.0;1.0 0
c p weight -26 1.0;1.0;1.0;1.0;1.0;1.0;1.0;1.0;1.0 0
c p weight 27 1.0;1.0;1.0;1.0;1.0;1.0;1.0;1.0;1.0 0
c p weight -27 1.0;1.0;1.0;1.0;1.0;1.0;1.0;1.0;1.0 0
c p weight 28 1.0;1.0;1.0;1.0;1.0;1.0;1.0;1.0;1.0 0
c p weight -28 1.0;1.0;1.0;1.0;1.0;1.0;1.0;1.0;1.0 0
c p weight 29 1.0;1.0;1.0;1.0;1.0;1.0;1.0;1.0;1.0 0
c p weight -29 1.0;1.0;1.0;1.0;1.0;1.0;1.0;1.0;1.0 0
c p weight 30 1.0;1.0;1.0;1.0;1.0;1.0;1.0;1.0;1.0 0
c p weight -30 1.0;1.0;1.0;1.0;1.0;1.0;1.0;1.0;1.0 0
c p weight 31 1.0;1.0;1.0;1.0;1.0;1.0;1.0;1.0;1.0 0
c p weight -31 1.0;1.0;1.0;1.0;1.0;1.0;1.0;1.0;1.0 0
c p weight 32 1.0;1.0;1.0;1.0;1.0;1.0;1.0;1.0;1.0 0
c p weight -32 1.0;1.0;1.0;1.0;1.0;1.0;1.0;1.0;1.0 0
c p weight 33 1.0;1.0;1.0;1.0;1.0;1.0;1.0;1.0;1.0 0
c p weight -33 1.0;1.0;1.0;1.0;1.0;1.0;1.0;1.0;1.0 0
c p weight 34 0.5;0.5;0.5;0.5;0.5;0.5;0.5;0.5;0.5 0
c p weight -34 0.5;0.5;0.5;0.5;0.5;0.5;0.5;0.5;0.5 0
c p weight 35 1.0;1.0;1.0;1.0;1.0;1.0;1.0;1.0;1.0 0
c p weight -35 0.0;1.0;1.0;1.0;1.0;1.0;1.0;1.0;1.0 0
c p weight 36 0.5;0.5;0.5;0.5;0.5;0.5;0.5;0.5;0.5 0
c p weight -36 0.5;0.5;0.5;0.5;0.5;0.5;0.5;0.5;0.5 0
c p weight 37 1.0;1.0;1.0;1.0;1.0;1.0;1.0;1.0;1.0 0
c p weight -37 1.0;0.0;1.0;1.0;1.0;1.0;1.0;1.0;1.0 0
c p weight 38 0.5;0.5;0.5;0.5;0.5;0.5;0.5;0.5;0.5 0
c p weight -38 0.5;0.5;0.5;0.5;0.5;0.5;0.5;0.5;0.5 0
c p weight 39 1.0;1.0;1.0;1.0;1.0;1.0;1.0;1.0;1.0 0
c p weight -39 1.0;1.0;0.0;1.0;1.0;1.0;1.0;1.0;1.0 0
c p weight 40 0.5;0.5;0.5;0.5;0.5;0.5;0.5;0.5;0.5 0
c p weight -40 0.5;0.5;0.5;0.5;0.5;0.5;0.5;0.5;0.5 0
c p weight 41 1.0;1.0;1.0;1.0;1.0;1.0;1.0;1.0;1.0 0
c p weight -41 1.0;1.0;1.0;0.0;1.0;1.0;1.0;1.0;1.0 0
c p weight 42 1.0;1.0;1.0;1.0;1.0;1.0;1.0;1.0;1.0 0
c p weight -42 1.0;1.0;1.0;1.0;0.0;1.0;1.0;1.0;1.0 0
c p weight 43 0.5;0.5;0.5;0.5;0.5;0.5;0.5;0.5;0.5 0
c p weight -43 0.5;0.5;0.5;0.5;0.5;0.5;0.5;0.5;0.5 0
c p weight 44 0.5;0.5;0.5;0.5;0.5;0.5;0.5;0.5;0.5 0
c p weight -44 0.5;0.5;0.5;0.5;0.5;0.5;0.5;0.5;0.5 0
c p weight 45 1.0;1.0;1.0;1.0;1.0;1.0;1.0;1.0;1.0 0
c p weight -45 1.0;1.0;1.0;1.0;1.0;0.0;1.0;1.0;1.0 0
c p weight 46 0.5;0.5;0.5;0.5;0.5;0.5;0.5;0.5;0.5 0
c p weight -46 0.5;0.5;0.5;0.5;0.5;0.5;0.5;0.5;0.5 0
c p weight 47 1.0;1.0;1.0;1.0;1.0;1.0;1.0;1.0;1.0 0
c p weight -47 1.0;1.0;1.0;1.0;1.0;1.0;0.0;1.0;1.0 0
c p weight 48 0.5;0.5;0.5;0.5;0.5;0.5;0.5;0.5;0.5 0
c p weight -48 0.5;0.5;0.5;0.5;0.5;0.5;0.5;0.5;0.5 0
c p weight 49 1.0;1.0;1.0;1.0;1.0;1.0;1.0;1.0;1.0 0
c p weight -49 1.0;1.0;1.0;1.0;1.0;1.0;1.0;0.0;1.0 0
c p weight 50 0.5;0.5;0.5;0.5;0.5;0.5;0.5;0.5;0.5 0
c p weight -50 0.5;0.5;0.5;0.5;0.5;0.5;0.5;0.5;0.5 0
c p weight 51 1.0;1.0;1.0;1.0;1.0;1.0;1.0;1.0;1.0 0
c p weight -51 1.0;1.0;1.0;1.0;1.0;1.0;1.0;1.0;0.0 0
c p weight 52 0.5;0.5;0.5;0.5;0.5;0.5;0.5;0.5;0.5 0
c p weight -52 0.5;0.5;0.5;0.5;0.5;0.5;0.5;0.5;0.5 0
c p weight 53 0.5;0.5;0.5;0.5;0.5;0.5;0.5;0.5;0.5 0
c p weight -53 0.5;0.5;0.5;0.5;0.5;0.5;0.5;0.5;0.5 0
c p weight 54 0.5;0.5;0.5;0.5;0.5;0.5;0.5;0.5;0.5 0
c p weight -54 0.5;0.5;0.5;0.5;0.5;0.5;0.5;0.5;0.5 0
c p weight 55 0.5;0.5;0.5;0.5;0.5;0.5;0.5;0.5;0.5 0
c p weight -55 0.5;0.5;0.5;0.5;0.5;0.5;0.5;0.5;0.5 0
c p weight 56 0.5;0.5;0.5;0.5;0.5;0.5;0.5;0.5;0.5 0
c p weight -56 0.5;0.5;0.5;0.5;0.5;0.5;0.5;0.5;0.5 0
c p weight 57 0.5;0.5;0.5;0.5;0.5;0.5;0.5;0.5;0.5 0
c p weight -57 0.5;0.5;0.5;0.5;0.5;0.5;0.5;0.5;0.5 0
c p weight 58 0.5;0.5;0.5;0.5;0.5;0.5;0.5;0.5;0.5 0
c p weight -58 0.5;0.5;0.5;0.5;0.5;0.5;0.5;0.5;0.5 0
c p weight 59 0.5;0.5;0.5;0.5;0.5;0.5;0.5;0.5;0.5 0
c p weight -59 0.5;0.5;0.5;0.5;0.5;0.5;0.5;0.5;0.5 0
c p weight 60 0.5;0.5;0.5;0.5;0.5;0.5;0.5;0.5;0.5 0
c p weight -60 0.5;0.5;0.5;0.5;0.5;0.5;0.5;0.5;0.5 0
c p weight 61 0.5;0.5;0.5;0.5;0.5;0.5;0.5;0.5;0.5 0
c p weight -61 0.5;0.5;0.5;0.5;0.5;0.5;0.5;0.5;0.5 0
c p weight 62 0.5;0.5;0.5;0.5;0.5;0.5;0.5;0.5;0.5 0
c p weight -62 0.5;0.5;0.5;0.5;0.5;0.5;0.5;0.5;0.5 0
c p weight 63 0.5;0.5;0.5;0.5;0.5;0.5;0.5;0.5;0.5 0
c p weight -63 0.5;0.5;0.5;0.5;0.5;0.5;0.5;0.5;0.5 0
c p weight 64 0.5;0.5;0.5;0.5;0.5;0.5;0.5;0.5;0.5 0
c p weight -64 0.5;0.5;0.5;0.5;0.5;0.5;0.5;0.5;0.5 0
c p weight 65 0.5;0.5;0.5;0.5;0.5;0.5;0.5;0.5;0.5 0
c p weight -65 0.5;0.5;0.5;0.5;0.5;0.5;0.5;0.5;0.5 0
c p weight 66 0.5;0.5;0.5;0.5;0.5;0.5;0.5;0.5;0.5 0
c p weight -66 0.5;0.5;0.5;0.5;0.5;0.5;0.5;0.5;0.5 0
c p weight 67 0.5;0.5;0.5;0.5;0.5;0.5;0.5;0.5;0.5 0
c p weight -67 0.5;0.5;0.5;0.5;0.5;0.5;0.5;0.5;0.5 0
c p weight 68 0.5;0.5;0.5;0.5;0.5;0.5;0.5;0.5;0.5 0
c p weight -68 0.5;0.5;0.5;0.5;0.5;0.5;0.5;0.5;0.5 0
c p weight 69 0.5;0.5;0.5;0.5;0.5;0.5;0.5;0.5;0.5 0
c p weight -69 0.5;0.5;0.5;0.5;0.5;0.5;0.5;0.5;0.5 0
c p weight 70 0.5;0.5;0.5;0.5;0.5;0.5;0.5;0.5;0.5 0
c p weight -70 0.5;0.5;0.5;0.5;0.5;0.5;0.5;0.5;0.5 0
c p weight 71 0.5;0.5;0.5;0.5;0.5;0.5;0.5;0.5;0.5 0
c p weight -71 0.5;0.5;0.5;0.5;0.5;0.5;0.5;0.5;0.5 0
c p weight 72 0.5;0.5;0.5;0.5;0.5;0.5;0.5;0.5;0.5 0
c p weight -72 0.5;0.5;0.5;0.5;0.5;0.5;0.5;0.5;0.5 0
c p weight 73 0.5;0.5;0.5;0.5;0.5;0.5;0.5;0.5;0.5 0
c p weight -73 0.5;0.5;0.5;0.5;0.5;0.5;0.5;0.5;0.5 0
c p weight 74 0.5;0.5;0.5;0.5;0.5;0.5;0.5;0.5;0.5 0
c p weight -74 0.5;0.5;0.5;0.5;0.5;0.5;0.5;0.5;0.5 0
c p weight 75 0.5;0.5;0.5;0.5;0.5;0.5;0.5;0.5;0.5 0
c p weight -75 0.5;0.5;0.5;0.5;0.5;0.5;0.5;0.5;0.5 0
c p weight 76 1.0;1.0;1.0;1.0;1.0;1.0;1.0;1.0;1.0 0
c p weight -76 1.0;1.0;1.0;1.0;1.0;1.0;1.0;1.0;1.0 0
c p weight 77 1.0;1.0;1.0;1.0;1.0;1.0;1.0;1.0;1.0 0
c p weight -77 1.0;1.0;1.0;1.0;1.0;1.0;1.0;1.0;1.0 0
c p weight 78 1.0;1.0;1.0;1.0;1.0;1.0;1.0;1.0;1.0 0
c p weight -78 1.0;1.0;1.0;1.0;1.0;1.0;1.0;1.0;1.0 0
c p weight 79 1.0;1.0;1.0;1.0;1.0;1.0;1.0;1.0;1.0 0
c p weight -79 1.0;1.0;1.0;1.0;1.0;1.0;1.0;1.0;1.0 0
c p weight 80 1.0;1.0;1.0;1.0;1.0;1.0;1.0;1.0;1.0 0
c p weight -80 1.0;1.0;1.0;1.0;1.0;1.0;1.0;1.0;1.0 0
c p weight 81 1.0;1.0;1.0;1.0;1.0;1.0;1.0;1.0;1.0 0
c p weight -81 1.0;1.0;1.0;1.0;1.0;1.0;1.0;1.0;1.0 0
c p weight 82 1.0;1.0;1.0;1.0;1.0;1.0;1.0;1.0;1.0 0
c p weight -82 1.0;1.0;1.0;1.0;1.0;1.0;1.0;1.0;1.0 0
c p weight 83 1.0;1.0;1.0;1.0;1.0;1.0;1.0;1.0;1.0 0
c p weight -83 1.0;1.0;1.0;1.0;1.0;1.0;1.0;1.0;1.0 0
c p weight 84 1.0;1.0;1.0;1.0;1.0;1.0;1.0;1.0;1.0 0
c p weight -84 1.0;1.0;1.0;1.0;1.0;1.0;1.0;1.0;1.0 0
c p weight 85 1.0;1.0;1.0;1.0;1.0;1.0;1.0;1.0;1.0 0
c p weight -85 1.0;1.0;1.0;1.0;1.0;1.0;1.0;1.0;1.0 0
c p weight 86 1.0;1.0;1.0;1.0;1.0;1.0;1.0;1.0;1.0 0
c p weight -86 1.0;1.0;1.0;1.0;1.0;1.0;1.0;1.0;1.0 0
c p weight 87 1.0;1.0;1.0;1.0;1.0;1.0;1.0;1.0;1.0 0
c p weight -87 1.0;1.0;1.0;1.0;1.0;1.0;1.0;1.0;1.0 0
c p weight 88 1.0;1.0;1.0;1.0;1.0;1.0;1.0;1.0;1.0 0
c p weight -88 1.0;1.0;1.0;1.0;1.0;1.0;1.0;1.0;1.0 0
c p weight 89 1.0;1.0;1.0;1.0;1.0;1.0;1.0;1.0;1.0 0
c p weight -89 1.0;1.0;1.0;1.0;1.0;1.0;1.0;1.0;1.0 0
c p weight 90 1.0;1.0;1.0;1.0;1.0;1.0;1.0;1.0;1.0 0
c p weight -90 1.0;1.0;1.0;1.0;1.0;1.0;1.0;1.0;1.0 0
c p weight 91 1.0;1.0;1.0;1.0;1.0;1.0;1.0;1.0;1.0 0
c p weight -91 1.0;1.0;1.0;1.0;1.0;1.0;1.0;1.0;1.0 0
c p weight 92 1.0;1.0;1.0;1.0;1.0;1.0;1.0;1.0;1.0 0
c p weight -92 1.0;1.0;1.0;1.0;1.0;1.0;1.0;1.0;1.0 0
c p weight 93 1.0;1.0;1.0;1.0;1.0;1.0;1.0;1.0;1.0 0
c p weight -93 1.0;1.0;1.0;1.0;1.0;1.0;1.0;1.0;1.0 0
c p weight 94 1.0;1.0;1.0;1.0;1.0;1.0;1.0;1.0;1.0 0
c p weight -94 1.0;1.0;1.0;1.0;1.0;1.0;1.0;1.0;1.0 0
c p weight 95 1.0;1.0;1.0;1.0;1.0;1.0;1.0;1.0;1.0 0
c p weight -95 1.0;1.0;1.0;1.0;1.0;1.0;1.0;1.0;1.0 0
c p weight 96 1.0;1.0;1.0;1.0;1.0;1.0;1.0;1.0;1.0 0
c p weight -96 1.0;1.0;1.0;1.0;1.0;1.0;1.0;1.0;1.0 0
c p weight 97 1.0;1.0;1.0;1.0;1.0;1.0;1.0;1.0;1.0 0
c p weight -97 1.0;1.0;1.0;1.0;1.0;1.0;1.0;1.0;1.0 0
c p weight 98 1.0;1.0;1.0;1.0;1.0;1.0;1.0;1.0;1.0 0
c p weight -98 1.0;1.0;1.0;1.0;1.0;1.0;1.0;1.0;1.0 0
c p weight 99 1.0;1.0;1.0;1.0;1.0;1.0;1.0;1.0;1.0 0
c p weight -99 1.0;1.0;1.0;1.0;1.0;1.0;1.0;1.0;1.0 0
c p weight 100 1.0;1.0;1.0;1.0;1.0;1.0;1.0;1.0;1.0 0
c p weight -100 1.0;1.0;1.0;1.0;1.0;1.0;1.0;1.0;1.0 0
c p weight 101 1.0;1.0;1.0;1.0;1.0;1.0;1.0;1.0;1.0 0
c p weight -101 1.0;1.0;1.0;1.0;1.0;1.0;1.0;1.0;1.0 0
c p weight 102 1.0;1.0;1.0;1.0;1.0;1.0;1.0;1.0;1.0 0
c p weight -102 1.0;1.0;1.0;1.0;1.0;1.0;1.0;1.0;1.0 0
c p weight 103 1.0;1.0;1.0;1.0;1.0;1.0;1.0;1.0;1.0 0
c p weight -103 1.0;1.0;1.0;1.0;1.0;1.0;1.0;1.0;1.0 0
c p weight 104 1.0;1.0;1.0;1.0;1.0;1.0;1.0;1.0;1.0 0
c p weight -104 1.0;1.0;1.0;1.0;1.0;1.0;1.0;1.0;1.0 0
c p weight 105 1.0;1.0;1.0;1.0;1.0;1.0;1.0;1.0;1.0 0
c p weight -105 1.0;1.0;1.0;1.0;1.0;1.0;1.0;1.0;1.0 0
c p weight 106 1.0;1.0;1.0;1.0;1.0;1.0;1.0;1.0;1.0 0
c p weight -106 1.0;1.0;1.0;1.0;1.0;1.0;1.0;1.0;1.0 0
c p weight 107 1.0;1.0;1.0;1.0;1.0;1.0;1.0;1.0;1.0 0
c p weight -107 1.0;1.0;1.0;1.0;1.0;1.0;1.0;1.0;1.0 0
c p weight 108 1.0;1.0;1.0;1.0;1.0;1.0;1.0;1.0;1.0 0
c p weight -108 1.0;1.0;1.0;1.0;1.0;1.0;1.0;1.0;1.0 0
c p weight 109 1.0;1.0;1.0;1.0;1.0;1.0;1.0;1.0;1.0 0
c p weight -109 1.0;1.0;1.0;1.0;1.0;1.0;1.0;1.0;1.0 0
c p weight 110 1.0;1.0;1.0;1.0;1.0;1.0;1.0;1.0;1.0 0
c p weight -110 1.0;1.0;1.0;1.0;1.0;1.0;1.0;1.0;1.0 0
c p weight 111 1.0;1.0;1.0;1.0;1.0;1.0;1.0;1.0;1.0 0
c p weight -111 1.0;1.0;1.0;1.0;1.0;1.0;1.0;1.0;1.0 0
c p weight 112 1.0;1.0;1.0;1.0;1.0;1.0;1.0;1.0;1.0 0
c p weight -112 1.0;1.0;1.0;1.0;1.0;1.0;1.0;1.0;1.0 0
c p weight 113 1.0;1.0;1.0;1.0;1.0;1.0;1.0;1.0;1.0 0
c p weight -113 1.0;1.0;1.0;1.0;1.0;1.0;1.0;1.0;1.0 0
c p weight 114 1.0;1.0;1.0;1.0;1.0;1.0;1.0;1.0;1.0 0
c p weight -114 1.0;1.0;1.0;1.0;1.0;1.0;1.0;1.0;1.0 0
c p weight 115 1.0;1.0;1.0;1.0;1.0;1.0;1.0;1.0;1.0 0
c p weight -115 1.0;1.0;1.0;1.0;1.0;1.0;1.0;1.0;1.0 0
c p weight 116 1.0;1.0;1.0;1.0;1.0;1.0;1.0;1.0;1.0 0
c p weight -116 1.0;1.0;1.0;1.0;1.0;1.0;1.0;1.0;1.0 0
c p weight 117 1.0;1.0;1.0;1.0;1.0;1.0;1.0;1.0;1.0 0
c p weight -117 1.0;1.0;1.0;1.0;1.0;1.0;1.0;1.0;1.0 0
c p weight 118 1.0;1.0;1.0;1.0;1.0;1.0;1.0;1.0;1.0 0
c p weight -118 1.0;1.0;1.0;1.0;1.0;1.0;1.0;1.0;1.0 0
c p weight 119 1.0;1.0;1.0;1.0;1.0;1.0;1.0;1.0;1.0 0
c p weight -119 1.0;1.0;1.0;1.0;1.0;1.0;1.0;1.0;1.0 0
c p weight 120 1.0;1.0;1.0;1.0;1.0;1.0;1.0;1.0;1.0 0
c p weight -120 1.0;1.0;1.0;1.0;1.0;1.0;1.0;1.0;1.0 0
c p weight 121 1.0;1.0;1.0;1.0;1.0;1.0;1.0;1.0;1.0 0
c p weight -121 1.0;1.0;1.0;1.0;1.0;1.0;1.0;1.0;1.0 0
c p weight 122 1.0;1.0;1.0;1.0;1.0;1.0;1.0;1.0;1.0 0
c p weight -122 1.0;1.0;1.0;1.0;1.0;1.0;1.0;1.0;1.0 0
c p weight 123 1.0;1.0;1.0;1.0;1.0;1.0;1.0;1.0;1.0 0
c p weight -123 1.0;1.0;1.0;1.0;1.0;1.0;1.0;1.0;1.0 0
c p weight 124 1.0;1.0;1.0;1.0;1.0;1.0;1.0;1.0;1.0 0
c p weight -124 1.0;1.0;1.0;1.0;1.0;1.0;1.0;1.0;1.0 0
c p weight 125 1.0;1.0;1.0;1.0;1.0;1.0;1.0;1.0;1.0 0
c p weight -125 1.0;1.0;1.0;1.0;1.0;1.0;1.0;1.0;1.0 0
c p weight 126 1.0;1.0;1.0;1.0;1.0;1.0;1.0;1.0;1.0 0
c p weight -126 1.0;1.0;1.0;1.0;1.0;1.0;1.0;1.0;1.0 0
c p weight 127 1.0;1.0;1.0;1.0;1.0;1.0;1.0;1.0;1.0 0
c p weight -127 1.0;1.0;1.0;1.0;1.0;1.0;1.0;1.0;1.0 0
c p weight 128 1.0;1.0;1.0;1.0;1.0;1.0;1.0;1.0;1.0 0
c p weight -128 1.0;1.0;1.0;1.0;1.0;1.0;1.0;1.0;1.0 0
c p weight 129 1.0;1.0;1.0;1.0;1.0;1.0;1.0;1.0;1.0 0
c p weight -129 1.0;1.0;1.0;1.0;1.0;1.0;1.0;1.0;1.0 0
c p weight 130 1.0;1.0;1.0;1.0;1.0;1.0;1.0;1.0;1.0 0
c p weight -130 1.0;1.0;1.0;1.0;1.0;1.0;1.0;1.0;1.0 0
c p weight 131 1.0;1.0;1.0;1.0;1.0;1.0;1.0;1.0;1.0 0
c p weight -131 1.0;1.0;1.0;1.0;1.0;1.0;1.0;1.0;1.0 0
c p weight 132 1.0;1.0;1.0;1.0;1.0;1.0;1.0;1.0;1.0 0
c p weight -132 1.0;1.0;1.0;1.0;1.0;1.0;1.0;1.0;1.0 0
c p weight 133 1.0;1.0;1.0;1.0;1.0;1.0;1.0;1.0;1.0 0
c p weight -133 1.0;1.0;1.0;1.0;1.0;1.0;1.0;1.0;1.0 0
c p weight 134 1.0;1.0;1.0;1.0;1.0;1.0;1.0;1.0;1.0 0
c p weight -134 1.0;1.0;1.0;1.0;1.0;1.0;1.0;1.0;1.0 0
c p weight 135 1.0;1.0;1.0;1.0;1.0;1.0;1.0;1.0;1.0 0
c p weight -135 1.0;1.0;1.0;1.0;1.0;1.0;1.0;1.0;1.0 0
c p weight 136 1.0;1.0;1.0;1.0;1.0;1.0;1.0;1.0;1.0 0
c p weight -136 1.0;1.0;1.0;1.0;1.0;1.0;1.0;1.0;1.0 0
c p weight 137 1.0;1.0;1.0;1.0;1.0;1.0;1.0;1.0;1.0 0
c p weight -137 1.0;1.0;1.0;1.0;1.0;1.0;1.0;1.0;1.0 0
c p weight 138 1.0;1.0;1.0;1.0;1.0;1.0;1.0;1.0;1.0 0
c p weight -138 1.0;1.0;1.0;1.0;1.0;1.0;1.0;1.0;1.0 0
c p weight 139 1.0;1.0;1.0;1.0;1.0;1.0;1.0;1.0;1.0 0
c p weight -139 1.0;1.0;1.0;1.0;1.0;1.0;1.0;1.0;1.0 0
c p weight 140 1.0;1.0;1.0;1.0;1.0;1.0;1.0;1.0;1.0 0
c p weight -140 1.0;1.0;1.0;1.0;1.0;1.0;1.0;1.0;1.0 0
c p weight 141 1.0;1.0;1.0;1.0;1.0;1.0;1.0;1.0;1.0 0
c p weight -141 1.0;1.0;1.0;1.0;1.0;1.0;1.0;1.0;1.0 0
c p weight 142 1.0;1.0;1.0;1.0;1.0;1.0;1.0;1.0;1.0 0
c p weight -142 1.0;1.0;1.0;1.0;1.0;1.0;1.0;1.0;1.0 0
c p weight 143 1.0;1.0;1.0;1.0;1.0;1.0;1.0;1.0;1.0 0
c p weight -143 1.0;1.0;1.0;1.0;1.0;1.0;1.0;1.0;1.0 0
c p weight 144 1.0;1.0;1.0;1.0;1.0;1.0;1.0;1.0;1.0 0
c p weight -144 1.0;1.0;1.0;1.0;1.0;1.0;1.0;1.0;1.0 0
c p weight 145 1.0;1.0;1.0;1.0;1.0;1.0;1.0;1.0;1.0 0
c p weight -145 1.0;1.0;1.0;1.0;1.0;1.0;1.0;1.0;1.0 0
c p weight 146 1.0;1.0;1.0;1.0;1.0;1.0;1.0;1.0;1.0 0
c p weight -146 1.0;1.0;1.0;1.0;1.0;1.0;1.0;1.0;1.0 0
c p weight 147 1.0;1.0;1.0;1.0;1.0;1.0;1.0;1.0;1.0 0
c p weight -147 1.0;1.0;1.0;1.0;1.0;1.0;1.0;1.0;1.0 0
c p weight 148 1.0;1.0;1.0;1.0;1.0;1.0;1.0;1.0;1.0 0
c p weight -148 1.0;1.0;1.0;1.0;1.0;1.0;1.0;1.0;1.0 0
c p weight 149 1.0;1.0;1.0;1.0;1.0;1.0;1.0;1.0;1.0 0
c p weight -149 1.0;1.0;1.0;1.0;1.0;1.0;1.0;1.0;1.0 0
c p weight 150 1.0;1.0;1.0;1.0;1.0;1.0;1.0;1.0;1.0 0
c p weight -150 1.0;1.0;1.0;1.0;1.0;1.0;1.0;1.0;1.0 0
c p weight 151 1.0;1.0;1.0;1.0;1.0;1.0;1.0;1.0;1.0 0
c p weight -151 1.0;1.0;1.0;1.0;1.0;1.0;1.0;1.0;1.0 0
c p weight 152 1.0;1.0;1.0;1.0;1.0;1.0;1.0;1.0;1.0 0
c p weight -152 1.0;1.0;1.0;1.0;1.0;1.0;1.0;1.0;1.0 0
c p weight 153 1.0;1.0;1.0;1.0;1.0;1.0;1.0;1.0;1.0 0
c p weight -153 1.0;1.0;1.0;1.0;1.0;1.0;1.0;1.0;1.0 0
c p weight 154 1.0;1.0;1.0;1.0;1.0;1.0;1.0;1.0;1.0 0
c p weight -154 1.0;1.0;1.0;1.0;1.0;1.0;1.0;1.0;1.0 0
c p weight 155 1.0;1.0;1.0;1.0;1.0;1.0;1.0;1.0;1.0 0
c p weight -155 1.0;1.0;1.0;1.0;1.0;1.0;1.0;1.0;1.0 0
c p weight 156 1.0;1.0;1.0;1.0;1.0;1.0;1.0;1.0;1.0 0
c p weight -156 1.0;1.0;1.0;1.0;1.0;1.0;1.0;1.0;1.0 0
c p weight 157 1.0;1.0;1.0;1.0;1.0;1.0;1.0;1.0;1.0 0
c p weight -157 1.0;1.0;1.0;1.0;1.0;1.0;1.0;1.0;1.0 0
c p weight 158 1.0;1.0;1.0;1.0;1.0;1.0;1.0;1.0;1.0 0
c p weight -158 1.0;1.0;1.0;1.0;1.0;1.0;1.0;1.0;1.0 0
c p weight 159 1.0;1.0;1.0;1.0;1.0;1.0;1.0;1.0;1.0 0
c p weight -159 1.0;1.0;1.0;1.0;1.0;1.0;1.0;1.0;1.0 0
c p weight 160 1.0;1.0;1.0;1.0;1.0;1.0;1.0;1.0;1.0 0
c p weight -160 1.0;1.0;1.0;1.0;1.0;1.0;1.0;1.0;1.0 0
c p weight 161 1.0;1.0;1.0;1.0;1.0;1.0;1.0;1.0;1.0 0
c p weight -161 1.0;1.0;1.0;1.0;1.0;1.0;1.0;1.0;1.0 0
c p weight 162 1.0;1.0;1.0;1.0;1.0;1.0;1.0;1.0;1.0 0
c p weight -162 1.0;1.0;1.0;1.0;1.0;1.0;1.0;1.0;1.0 0
c p weight 163 1.0;1.0;1.0;1.0;1.0;1.0;1.0;1.0;1.0 0
c p weight -163 1.0;1.0;1.0;1.0;1.0;1.0;1.0;1.0;1.0 0
c p weight 164 1.0;1.0;1.0;1.0;1.0;1.0;1.0;1.0;1.0 0
c p weight -164 1.0;1.0;1.0;1.0;1.0;1.0;1.0;1.0;1.0 0
c p weight 165 1.0;1.0;1.0;1.0;1.0;1.0;1.0;1.0;1.0 0
c p weight -165 1.0;1.0;1.0;1.0;1.0;1.0;1.0;1.0;1.0 0
c p weight 166 1.0;1.0;1.0;1.0;1.0;1.0;1.0;1.0;1.0 0
c p weight -166 1.0;1.0;1.0;1.0;1.0;1.0;1.0;1.0;1.0 0
c p weight 167 1.0;1.0;1.0;1.0;1.0;1.0;1.0;1.0;1.0 0
c p weight -167 1.0;1.0;1.0;1.0;1.0;1.0;1.0;1.0;1.0 0
c p weight 168 1.0;1.0;1.0;1.0;1.0;1.0;1.0;1.0;1.0 0
c p weight -168 1.0;1.0;1.0;1.0;1.0;1.0;1.0;1.0;1.0 0
c p weight 169 1.0;1.0;1.0;1.0;1.0;1.0;1.0;1.0;1.0 0
c p weight -169 1.0;1.0;1.0;1.0;1.0;1.0;1.0;1.0;1.0 0
c p weight 170 1.0;1.0;1.0;1.0;1.0;1.0;1.0;1.0;1.0 0
c p weight -170 1.0;1.0;1.0;1.0;1.0;1.0;1.0;1.0;1.0 0
c p weight 171 1.0;1.0;1.0;1.0;1.0;1.0;1.0;1.0;1.0 0
c p weight -171 1.0;1.0;1.0;1.0;1.0;1.0;1.0;1.0;1.0 0
c p weight 172 1.0;1.0;1.0;1.0;1.0;1.0;1.0;1.0;1.0 0
c p weight -172 1.0;1.0;1.0;1.0;1.0;1.0;1.0;1.0;1.0 0
c p weight 173 1.0;1.0;1.0;1.0;1.0;1.0;1.0;1.0;1.0 0
c p weight -173 1.0;1.0;1.0;1.0;1.0;1.0;1.0;1.0;1.0 0
c p weight 174 1.0;1.0;1.0;1.0;1.0;1.0;1.0;1.0;1.0 0
c p weight -174 1.0;1.0;1.0;1.0;1.0;1.0;1.0;1.0;1.0 0
c p weight 175 1.0;1.0;1.0;1.0;1.0;1.0;1.0;1.0;1.0 0
c p weight -175 1.0;1.0;1.0;1.0;1.0;1.0;1.0;1.0;1.0 0
c p weight 176 1.0;1.0;1.0;1.0;1.0;1.0;1.0;1.0;1.0 0
c p weight -176 1.0;1.0;1.0;1.0;1.0;1.0;1.0;1.0;1.0 0
c p weight 177 1.0;1.0;1.0;1.0;1.0;1.0;1.0;1.0;1.0 0
c p weight -177 1.0;1.0;1.0;1.0;1.0;1.0;1.0;1.0;1.0 0
c p weight 178 1.0;1.0;1.0;1.0;1.0;1.0;1.0;1.0;1.0 0
c p weight -178 1.0;1.0;1.0;1.0;1.0;1.0;1.0;1.0;1.0 0
c p weight 179 1.0;1.0;1.0;1.0;1.0;1.0;1.0;1.0;1.0 0
c p weight -179 1.0;1.0;1.0;1.0;1.0;1.0;1.0;1.0;1.0 0
c p weight 180 1.0;1.0;1.0;1.0;1.0;1.0;1.0;1.0;1.0 0
c p weight -180 1.0;1.0;1.0;1.0;1.0;1.0;1.0;1.0;1.0 0
c p weight 181 1.0;1.0;1.0;1.0;1.0;1.0;1.0;1.0;1.0 0
c p weight -181 1.0;1.0;1.0;1.0;1.0;1.0;1.0;1.0;1.0 0
c p weight 182 1.0;1.0;1.0;1.0;1.0;1.0;1.0;1.0;1.0 0
c p weight -182 1.0;1.0;1.0;1.0;1.0;1.0;1.0;1.0;1.0 0
c p weight 183 1.0;1.0;1.0;1.0;1.0;1.0;1.0;1.0;1.0 0
c p weight -183 1.0;1.0;1.0;1.0;1.0;1.0;1.0;1.0;1.0 0
c p weight 184 1.0;1.0;1.0;1.0;1.0;1.0;1.0;1.0;1.0 0
c p weight -184 1.0;1.0;1.0;1.0;1.0;1.0;1.0;1.0;1.0 0
c p weight 185 1.0;1.0;1.0;1.0;1.0;1.0;1.0;1.0;1.0 0
c p weight -185 1.0;1.0;1.0;1.0;1.0;1.0;1.0;1.0;1.0 0
c p weight 186 1.0;1.0;1.0;1.0;1.0;1.0;1.0;1.0;1.0 0
c p weight -186 1.0;1.0;1.0;1.0;1.0;1.0;1.0;1.0;1.0 0
c p weight 187 1.0;1.0;1.0;1.0;1.0;1.0;1.0;1.0;1.0 0
c p weight -187 1.0;1.0;1.0;1.0;1.0;1.0;1.0;1.0;1.0 0
c p weight 188 1.0;1.0;1.0;1.0;1.0;1.0;1.0;1.0;1.0 0
c p weight -188 1.0;1.0;1.0;1.0;1.0;1.0;1.0;1.0;1.0 0
c p weight 189 1.0;1.0;1.0;1.0;1.0;1.0;1.0;1.0;1.0 0
c p weight -189 1.0;1.0;1.0;1.0;1.0;1.0;1.0;1.0;1.0 0
c p weight 190 1.0;1.0;1.0;1.0;1.0;1.0;1.0;1.0;1.0 0
c p weight -190 1.0;1.0;1.0;1.0;1.0;1.0;1.0;1.0;1.0 0
c p weight 191 1.0;1.0;1.0;1.0;1.0;1.0;1.0;1.0;1.0 0
c p weight -191 1.0;1.0;1.0;1.0;1.0;1.0;1.0;1.0;1.0 0
c p weight 192 1.0;1.0;1.0;1.0;1.0;1.0;1.0;1.0;1.0 0
c p weight -192 1.0;1.0;1.0;1.0;1.0;1.0;1.0;1.0;1.0 0
c p weight 193 1.0;1.0;1.0;1.0;1.0;1.0;1.0;1.0;1.0 0
c p weight -193 1.0;1.0;1.0;1.0;1.0;1.0;1.0;1.0;1.0 0
c p weight 194 1.0;1.0;1.0;1.0;1.0;1.0;1.0;1.0;1.0 0
c p weight -194 1.0;1.0;1.0;1.0;1.0;1.0;1.0;1.0;1.0 0
c p weight 195 1.0;1.0;1.0;1.0;1.0;1.0;1.0;1.0;1.0 0
c p weight -195 1.0;1.0;1.0;1.0;1.0;1.0;1.0;1.0;1.0 0
c p weight 196 1.0;1.0;1.0;1.0;1.0;1.0;1.0;1.0;1.0 0
c p weight -196 1.0;1.0;1.0;1.0;1.0;1.0;1.0;1.0;1.0 0
c p weight 197 1.0;1.0;1.0;1.0;1.0;1.0;1.0;1.0;1.0 0
c p weight -197 1.0;1.0;1.0;1.0;1.0;1.0;1.0;1.0;1.0 0
c p weight 198 1.0;1.0;1.0;1.0;1.0;1.0;1.0;1.0;1.0 0
c p weight -198 1.0;1.0;1.0;1.0;1.0;1.0;1.0;1.0;1.0 0
c p weight 199 1.0;1.0;1.0;1.0;1.0;1.0;1.0;1.0;1.0 0
c p weight -199 1.0;1.0;1.0;1.0;1.0;1.0;1.0;1.0;1.0 0
c p weight 200 1.0;1.0;1.0;1.0;1.0;1.0;1.0;1.0;1.0 0
c p weight -200 1.0;1.0;1.0;1.0;1.0;1.0;1.0;1.0;1.0 0
c p weight 201 1.0;1.0;1.0;1.0;1.0;1.0;1.0;1.0;1.0 0
c p weight -201 1.0;1.0;1.0;1.0;1.0;1.0;1.0;1.0;1.0 0
c p weight 202 1.0;1.0;1.0;1.0;1.0;1.0;1.0;1.0;1.0 0
c p weight -202 1.0;1.0;1.0;1.0;1.0;1.0;1.0;1.0;1.0 0
c p weight 203 1.0;1.0;1.0;1.0;1.0;1.0;1.0;1.0;1.0 0
c p weight -203 1.0;1.0;1.0;1.0;1.0;1.0;1.0;1.0;1.0 0
c p weight 204 1.0;1.0;1.0;1.0;1.0;1.0;1.0;1.0;1.0 0
c p weight -204 1.0;1.0;1.0;1.0;1.0;1.0;1.0;1.0;1.0 0
c p weight 205 1.0;1.0;1.0;1.0;1.0;1.0;1.0;1.0;1.0 0
c p weight -205 1.0;1.0;1.0;1.0;1.0;1.0;1.0;1.0;1.0 0
c p weight 206 1.0;1.0;1.0;1.0;1.0;1.0;1.0;1.0;1.0 0
c p weight -206 1.0;1.0;1.0;1.0;1.0;1.0;1.0;1.0;1.0 0
c p weight 207 1.0;1.0;1.0;1.0;1.0;1.0;1.0;1.0;1.0 0
c p weight -207 1.0;1.0;1.0;1.0;1.0;1.0;1.0;1.0;1.0 0
c p weight 208 1.0;1.0;1.0;1.0;1.0;1.0;1.0;1.0;1.0 0
c p weight -208 1.0;1.0;1.0;1.0;1.0;1.0;1.0;1.0;1.0 0
c p weight 209 1.0;1.0;1.0;1.0;1.0;1.0;1.0;1.0;1.0 0
c p weight -209 1.0;1.0;1.0;1.0;1.0;1.0;1.0;1.0;1.0 0
c p weight 210 1.0;1.0;1.0;1.0;1.0;1.0;1.0;1.0;1.0 0
c p weight -210 1.0;1.0;1.0;1.0;1.0;1.0;1.0;1.0;1.0 0
c p weight 211 1.0;1.0;1.0;1.0;1.0;1.0;1.0;1.0;1.0 0
c p weight -211 1.0;1.0;1.0;1.0;1.0;1.0;1.0;1.0;1.0 0
c p semirings aspmc.semirings.probabilistic 0
c p quantify 1 2 3 4 5 6 7 8 9 10 11 12 13 14 15 16 17 18 19 20 21 22 23 24 25 26 27 28 29 30 31 32 33 34 35 36 37 38 39 40 41 42 43 44 45 46 47 48 49 50 51 52 53 54 55 56 57 58 59 60 61 62 63 64 65 66 67 68 69 70 71 72 73 74 75 76 77 78 79 80 81 82 83 84 85 86 87 88 89 90 91 92 93 94 95 96 97 98 99 100 101 102 103 104 105 106 107 108 109 110 111 112 113 114 115 116 117 118 119 120 121 122 123 124 125 126 127 128 129 130 131 132 133 134 135 136 137 138 139 140 141 142 143 144 145 146 147 148 149 150 151 152 153 154 155 156 157 158 159 160 161 162 163 164 165 166 167 168 169 170 171 172 173 174 175 176 177 178 179 180 181 182 183 184 185 186 187 188 189 190 191 192 193 194 195 196 197 198 199 200 201 202 203 204 205 206 207 208 209 210 211 0
c p auxilliary 1 2 3 4 5 6 7 8 9 10 11 12 13 14 15 16 17 18 19 20 21 22 23 24 25 26 27 28 29 30 31 32 33 76 77 78 79 80 81 82 83 84 85 86 87 88 89 90 91 92 93 94 95 96 97 98 99 100 101 102 103 104 105 106 107 108 109 110 111 112 113 114 115 116 117 118 119 120 121 122 123 124 125 126 127 128 129 130 131 132 133 134 135 136 137 138 139 140 141 142 143 144 145 146 147 148 149 150 151 152 153 154 155 156 157 158 159 160 161 162 163 164 165 166 167 168 169 170 171 172 173 174 175 176 177 178 179 180 181 182 183 184 185 186 187 188 189 190 191 192 193 194 195 196 197 198 199 200 201 202 203 204 205 206 207 208 209 210 211 0
